WARNING: for repeatability, setting FPU to use double precision
============================[ Problem Statistics ]=============================
|                                                                             |
|  Number of variables:            50                                         |
|  Number of clauses:             218                                         |
|  Parse time:                   0.00 s                                       |
|                                                                             |
============================[ Search Statistics ]==============================
| Conflicts |          ORIGINAL         |          LEARNT          | Progress |
|           |    Vars  Clauses Literals |    Limit  Clauses Lit/Cl |          |
===============================================================================
===============================================================================
restarts              : 1
conflicts             : 78             (50096 /sec)
decisions             : 90             (0.00 % random) (57803 /sec)
propagations          : 999            (641618 /sec)
conflict literals     : 287            (23.06 % deleted)
Memory used           : 20.00 MB
CPU time              : 0.001557 s

UNSATISFIABLE
